NAME : LRC2_6_8
TYPE : PDPTW
DIMENSION : 150
EDGE_WEIGHT_TYPE : EXACT_2D
NODE_COORD_SECTION
1 1 0
2 150 0
3 0 0
4 -11 3308
5 0 2
6 247 533
7 3 199
8 2312 10
9 61 84
10 10 72
11 103 20
12 0 452
13 10 49
14 311 7
15 2326 2954
16 8 230
17 1689 10
18 55 68
19 10 0
20 180 -20
21 520 0
22 -20 1067
23 0 12
24 659 971
25 13 257
26 937 10
27 57 155
28 10 0
29 26 25
30 0 169
31 10 192
32 131 17
33 760 1176
34 18 89
35 1225 10
36 84 231
37 10 0
38 240 -18
39 264 0
40 -30 468
41 0 22
42 290 937
43 23 180
44 336 10
45 240 73
46 10 0
47 265 20
48 0 554
49 20 88
50 243 27
51 590 922
52 28 160
53 696 10
54 289 130
55 10 226
56 255 5
57 0 410
58 -20 1178
59 0 32
60 2153 2623
61 33 115
62 367 10
63 250 228
64 10 0
65 89 -20
66 483 0
67 20 82
68 597 37
69 33 730
70 38 159
71 766 10
72 47 277
73 10 0
74 269 -30
75 485 0
76 -10 684
77 0 42
78 387 788
79 43 74
80 3581 10
81 140 140
82 10 0
83 241 -26
84 433 0
85 20 218
86 181 47
87 140 510
88 48 136
89 2776 10
90 250 124
91 10 0
92 299 -13
93 76 0
94 -2 547
95 0 52
96 133 812
97 53 212
98 985 10
99 259 59
100 10 301
101 104 -20
102 427 0
103 -10 462
104 0 57
105 2436 2720
106 58 57
107 1180 10
108 232 121
109 10 198
110 132 -4
111 49 0
112 24 1351
113 468 62
114 451 851
115 63 143
116 322 10
117 248 41
118 10 493
119 263 30
120 0 540
121 20 57
122 98 67
123 279 747
124 68 259
125 1455 0
126 38 139
127 10 0
128 41 -17
129 593 0
130 -20 315
131 0 72
132 736 1116
133 73 102
134 3570 10
135 43 286
136 10 0
137 160 -14
138 535 0
139 13 381
140 50 77
141 637 1108
142 78 88
143 2910 10
144 122 127
145 10 0
146 63 -10
147 173 0
148 16 97
149 328 82
150 2358 2886
PICKUP_AND_DELIVERY_SECTION
1 0 0 0 0 0 0
2 0 0 0 0 4823 0
3 0 0 0 0 0 125
4 0 0 0 0 10 10
5 0 0 0 0 107 107
6 0 0 0 0 0 0
7 0 0 0 0 -15 -15
8 0 0 0 0 0 0
9 0 0 0 0 1252 1252
10 0 0 0 0 5 0
11 0 0 0 0 472 472
12 0 0 0 0 143 143
13 0 0 0 0 10 10
14 0 0 0 0 141 141
15 0 0 0 0 113 113
16 0 0 0 0 -10 -10
17 0 0 0 0 0 0
18 0 0 0 0 429 429
19 0 0 0 0 10 10
20 0 0 0 0 1814 1814
21 0 0 0 0 159 159
22 0 0 0 0 10 10
23 0 0 0 0 4 4
24 0 0 0 0 0 0
25 0 0 0 0 10 10
26 0 0 0 0 356 0
27 0 0 0 0 186 186
28 0 0 0 0 15 15
29 0 0 0 0 2542 2542
30 0 0 0 0 231 231
31 0 0 0 0 10 10
32 0 0 0 0 132 132
33 0 0 0 0 0 0
34 0 0 0 0 14 14
35 0 0 0 0 442 0
36 0 0 0 0 2018 2018
37 0 0 0 0 20 20
38 0 0 0 0 2418 2418
39 0 0 0 0 110 110
40 0 0 0 0 10 10
41 0 0 0 0 74 74
42 0 0 0 0 0 0
43 0 0 0 0 19 19
44 0 0 0 0 109 0
45 0 0 0 0 321 321
46 0 0 0 0 25 25
47 0 0 0 0 985 985
48 0 0 0 0 134 134
49 0 0 0 0 10 10
50 0 0 0 0 59 59
51 0 0 0 0 247 247
52 0 0 0 0 10 10
53 0 0 0 0 250 0
54 0 0 0 0 1245 1245
55 0 0 0 0 30 0
56 0 0 0 0 1360 1360
57 0 0 0 0 234 234
58 0 0 0 0 10 10
59 0 0 0 0 208 208
60 0 0 0 0 19 19
61 0 0 0 0 10 10
62 0 0 0 0 521 0
63 0 0 0 0 2776 2776
64 0 0 0 0 35 35
65 0 0 0 0 3556 3556
66 0 0 0 0 105 105
67 0 0 0 0 10 10
68 0 0 0 0 183 183
69 0 0 0 0 0 0
70 0 0 0 0 15 15
71 0 0 0 0 498 0
72 0 0 0 0 272 272
73 0 0 0 0 40 40
74 0 0 0 0 2072 2072
75 0 0 0 0 212 212
76 0 0 0 0 10 10
77 0 0 0 0 149 149
78 0 0 0 0 0 0
79 0 0 0 0 -20 -20
80 0 0 0 0 0 0
81 0 0 0 0 14 14
82 0 0 0 0 45 45
83 0 0 0 0 3030 3030
84 0 0 0 0 222 222
85 0 0 0 0 10 10
86 0 0 0 0 124 124
87 0 0 0 0 0 0
88 0 0 0 0 -24 -24
89 0 0 0 0 0 0
90 0 0 0 0 394 394
91 0 0 0 0 50 50
92 0 0 0 0 1749 1749
93 0 0 0 0 258 258
94 0 0 0 0 10 10
95 0 0 0 0 47 47
96 0 0 0 0 0 0
97 0 0 0 0 -10 -10
98 0 0 0 0 0 0
99 0 0 0 0 494 494
100 0 0 0 0 55 0
101 0 0 0 0 692 692
102 0 0 0 0 77 77
103 0 0 0 0 10 10
104 0 0 0 0 45 45
105 0 0 0 0 0 0
106 0 0 0 0 -20 -20
107 0 0 0 0 0 0
108 0 0 0 0 2036 2036
109 0 0 0 0 60 0
110 0 0 0 0 981 981
111 0 0 0 0 18 18
112 0 0 0 0 10 10
113 0 0 0 0 113 113
114 0 0 0 0 0 0
115 0 0 0 0 20 20
116 0 0 0 0 588 0
117 0 0 0 0 1680 1680
118 0 0 0 0 65 0
119 0 0 0 0 1140 1140
120 0 0 0 0 109 109
121 0 0 0 0 10 10
122 0 0 0 0 71 71
123 0 0 0 0 0 0
124 0 0 0 0 10 10
125 0 0 0 0 603 0
126 0 0 0 0 1145 1145
127 0 0 0 0 70 70
128 0 0 0 0 1706 1706
129 0 0 0 0 255 255
130 0 0 0 0 10 10
131 0 0 0 0 122 122
132 0 0 0 0 0 0
133 0 0 0 0 -17 -17
134 0 0 0 0 0 0
135 0 0 0 0 513 513
136 0 0 0 0 75 75
137 0 0 0 0 568 568
138 0 0 0 0 172 172
139 0 0 0 0 10 10
140 0 0 0 0 22 22
141 0 0 0 0 213 213
142 0 0 0 0 -12 -12
143 0 0 0 0 0 0
144 0 0 0 0 0 36
145 0 0 0 0 80 80
146 0 0 0 0 934 934
147 0 0 0 0 53 53
148 0 0 0 0 10 10
149 0 0 0 0 281 281
150 0 0 0 0 0 0
DEPOT_SECTION
1 
-1
EOF
